Data path: /scratch/opt/lxu/CFLG/benchmarks/random_A
Instance: r_10_0.3_12.txt
Result path: /scratch/opt/lxu/CFLG/results/random_A
Solver: Gurobi
Time limit: 7200
Formulation: LEFPAI
Cover: Large
julia --project=. src/main.jl /scratch/opt/lxu/CFLG/benchmarks/random_A r_10_0.3_12.txt /scratch/opt/lxu/CFLG/results/random_A Gurobi 7200 LEFPAI Large
The latest version of Julia in the `release` channel is 1.11.5+0.x64.linux.gnu. You currently have `1.11.4+0.x64.linux.gnu` installed. Run:

  juliaup update

in your terminal shell to install Julia 1.11.5+0.x64.linux.gnu and update the `release` channel to that version.
/scratch/opt/lxu/CFLG/benchmarks/random_A Gurobi 7200.0 /scratch/opt/lxu/CFLG/results/random_A r_10_0.3_12.txt LEFPAI Large
/scratch/opt/lxu/CFLG/benchmarks/random_A/r_10_0.3_12.txt

 read graph
data loaded

problem_graph/original graph: node: 10/10 edge: 12/12 dlt: 1.221004914463064 break_avg_len: 0.610502457231532 break_max_len: 0.9875583338039858Vbar/V, Ebar/E(9, 10, 11, 12)
(1, 4)(1, 5)(3, 8)(3, 10)(4, 6)(4, 8)(4, 9)(5, 7)(6, 7)(7, 9)(8, 10)(Dict(8 => 0.0), [8], 10, 12)Set parameter TokenServer to value "solice01.zib.de"
Set parameter Threads to value 1
Set parameter OutputFlag to value 1
Gurobi Optimizer version 12.0.1 build v12.0.1rc0 (linux64 - "Debian GNU/Linux 12 (bookworm)")

CPU model: Intel(R) Xeon(R) Gold 5122 CPU @ 3.60GHz, instruction set [SSE2|AVX|AVX2|AVX512]
Thread count: 8 physical cores, 16 logical processors, using up to 1 threads

Non-default parameters:
Threads  1

Optimize a model with 22 rows, 36 columns and 60 nonzeros
Model fingerprint: 0x10781431
Coefficient statistics:
  Matrix range     [1e+00, 1e+00]
  Objective range  [1e+00, 1e+00]
  Bounds range     [1e+00, 1e+00]
  RHS range        [1e+00, 1e+00]
Presolve removed 22 rows and 36 columns
Presolve time: 0.02s
Presolve: All rows and columns removed
Iteration    Objective       Primal Inf.    Dual Inf.      Time
       0    1.0000000e+00   0.000000e+00   0.000000e+00      0s

Solved in 0 iterations and 0.02 seconds (0.00 work units)
Optimal objective  1.000000000e+00

User-callback calls 35, time in user-callback 0.01 sec
elapsed CPU time: 1.722568 seconds
Set parameter TokenServer to value "solice01.zib.de"
Set parameter Threads to value 1
Set parameter OutputFlag to value 1
Set parameter MIPGap to value 0.0001
Set parameter MIPGapAbs to value 0.999998
Set parameter TimeLimit to value 7198.277432

 more cuts: false 1.221004914463064 false
is_attach:trueformulation:LEFPAI0 12 0

 model loaded

Gurobi Optimizer version 12.0.1 build v12.0.1rc0 (linux64 - "Debian GNU/Linux 12 (bookworm)")

CPU model: Intel(R) Xeon(R) Gold 5122 CPU @ 3.60GHz, instruction set [SSE2|AVX|AVX2|AVX512]
Thread count: 8 physical cores, 16 logical processors, using up to 1 threads

Non-default parameters:
TimeLimit  7198.277432
MIPGapAbs  0.999998
Threads  1

Optimize a model with 200 rows, 205 columns and 539 nonzeros
Model fingerprint: 0xdf678cf8
Model has 137 simple general constraints
  137 INDICATOR
Variable types: 34 continuous, 171 integer (171 binary)
Coefficient statistics:
  Matrix range     [3e-01, 1e+00]
  Objective range  [1e+00, 1e+00]
  Bounds range     [3e-01, 1e+00]
  RHS range        [1e-06, 1e+00]
  GenCon rhs range [3e-02, 1e+00]
  GenCon coe range [1e+00, 1e+00]
Presolve added 23 rows and 0 columns
Presolve removed 0 rows and 66 columns
Presolve time: 0.01s
Presolved: 223 rows, 139 columns, 1141 nonzeros
Variable types: 20 continuous, 119 integer (119 binary)
Found heuristic solution: objective 11.0000000
Found heuristic solution: objective 10.0000000
Found heuristic solution: objective 8.0000000
Found heuristic solution: objective 7.0000000

Root relaxation: objective 1.069887e+00, 124 iterations, 0.00 seconds (0.00 work units)

    Nodes    |    Current Node    |     Objective Bounds      |     Work
 Expl Unexpl |  Obj  Depth IntInf | Incumbent    BestBd   Gap | It/Node Time

     0     0    1.06989    0   24    7.00000    1.06989  84.7%     -    0s
H    0     0                       6.0000000    1.06989  82.2%     -    0s
H    0     0                       5.0000000    1.06989  78.6%     -    0s
H    0     0                       3.0000000    1.06989  64.3%     -    0s
     0     0    1.36620    0   38    3.00000    1.36620  54.5%     -    0s
     0     0    1.36620    0   39    3.00000    1.36620  54.5%     -    0s
H    0     0                       2.0000000    1.45616  27.2%     -    0s
     0     0    1.45616    0   39    2.00000    1.45616  27.2%     -    0s

Cutting planes:
  Learned: 1
  Gomory: 1
  Cover: 1
  Implied bound: 1
  StrongCG: 1
  Zero half: 3
  RLT: 1

Explored 1 nodes (289 simplex iterations) in 0.03 seconds (0.02 work units)
Thread count was 1 (of 16 available processors)

Solution count 8: 2 3 5 ... 11

Optimal solution found (tolerance 1.00e-04)
Best objective 2.000000000000e+00, best bound 2.000000000000e+00, gap 0.0000%

User-callback calls 785, time in user-callback 0.00 sec

 sepatime0 0 0
2.0Stat(MathOptInterface.OPTIMAL, 2.0, 2.0, 0.0, 0.0, 1.722568, 0.028631925582885742, 1, Main.CFLG.LEFPAI, "", #undef)
